NAME : mtspf.pid3567.gtsp.132917779.tour
COMMENT : Length = 132917779
COMMENT : Found by LKH [Keld Helsgaun] Wed Jan 15 10:27:50 2025
TYPE : TOUR
DIMENSION : 85
TOUR_SECTION
1
57
54
55
56
60
61
58
59
17
14
15
16
85
82
83
84
2
65
62
63
64
19
20
21
18
76
77
74
75
41
38
39
40
66
67
68
69
33
30
31
32
9
6
7
8
50
51
52
53
5
26
27
28
29
23
24
25
22
4
11
12
13
10
70
71
72
73
43
44
45
42
48
49
46
47
3
34
35
36
37
80
81
78
79
-1
EOF
